p cnf 118 414
-4 2 0
-4 3 0
-2 -3 4 0
-5 -1 0
-5 -4 0
1 4 5 0
8 6 0
8 7 0
-6 -7 -8 0
-9 -2 0
-9 -8 0
2 8 9 0
10 -5 0
10 -9 0
5 9 -10 0
-11 -4 0
-11 4 0
13 -7 0
13 12 0
7 -12 -13 0
-14 11 0
-14 13 0
-11 -13 14 0
-17 -15 0
-17 -16 0
15 16 17 0
-14 17 -18 0
14 -17 -18 0
-14 -17 18 0
14 17 18 0
19 6 0
19 15 0
-6 -15 -19 0
20 18 0
20 19 0
-18 -19 -20 0
-20 21 -22 0
20 -21 -22 0
-20 -21 22 0
20 21 22 0
18 23 -24 0
-18 -23 -24 0
18 -23 24 0
-18 23 24 0
22 24 -25 0
-22 -24 -25 0
22 -24 25 0
-22 24 25 0
10 -25 -26 0
-10 25 -26 0
10 25 26 0
-10 -25 26 0
-27 -13 0
-27 -5 0
13 5 27 0
8 -2 -28 0
-8 2 -28 0
8 2 28 0
-8 -2 28 0
-29 28 0
-29 -4 0
-28 4 29 0
-30 -6 0
-30 -29 0
6 29 30 0
32 -31 0
32 7 0
31 -7 -32 0
-32 -4 -33 0
32 4 -33 0
-32 4 33 0
32 -4 33 0
35 -33 0
35 -34 0
33 34 -35 0
-36 -31 0
-36 -35 0
31 35 36 0
-37 -16 0
-37 -15 0
16 15 37 0
-38 1 0
-38 -37 0
-1 37 38 0
-38 -5 -39 0
38 5 -39 0
-38 5 39 0
38 -5 39 0
40 36 0
40 39 0
-36 -39 -40 0
40 18 -41 0
-40 -18 -41 0
40 -18 41 0
-40 18 41 0
1 15 -42 0
-1 -15 -42 0
1 -15 42 0
-1 15 42 0
43 3 0
43 32 0
-3 -32 -43 0
43 -15 -44 0
-43 15 -44 0
43 15 44 0
-43 -15 44 0
45 -42 0
45 44 0
42 -44 -45 0
-46 -41 0
-46 -45 0
41 45 46 0
-47 -30 0
-47 -46 0
30 46 47 0
-2 7 -48 0
2 -7 -48 0
-2 -7 48 0
2 7 48 0
11 14 -49 0
-11 -14 -49 0
11 -14 49 0
-11 14 49 0
-50 -8 0
-50 -4 0
8 4 50 0
-51 49 0
-51 50 0
-49 -50 51 0
-48 -51 -52 0
48 51 -52 0
-48 51 52 0
48 -51 52 0
53 52 0
53 1 0
-52 -1 -53 0
-55 -23 0
-55 -32 0
23 32 55 0
56 54 0
56 55 0
-54 -55 -56 0
-57 -31 0
-57 56 0
31 -56 57 0
58 -5 0
58 35 0
5 -35 -58 0
-57 58 -59 0
57 -58 -59 0
-57 -58 59 0
57 58 59 0
60 28 0
60 -23 0
-28 23 -60 0
-61 59 0
-61 -60 0
-59 60 61 0
-62 -53 0
-62 -61 0
53 61 62 0
-63 -44 0
-63 7 0
44 -7 63 0
64 14 0
64 -16 0
-14 16 -64 0
13 -12 -65 0
-13 12 -65 0
13 12 65 0
-13 -12 65 0
-64 -65 -66 0
64 65 -66 0
-64 65 66 0
64 -65 66 0
67 -28 0
67 -37 0
28 37 -67 0
68 -67 0
68 -2 0
67 2 -68 0
-69 -42 0
-69 -31 0
42 31 69 0
-70 68 0
-70 -69 0
-68 69 70 0
-71 -66 0
-71 70 0
66 -70 71 0
-72 63 0
-72 71 0
-63 -71 72 0
-32 73 0
32 73 0
-32 73 -74 0
32 -73 -74 0
-32 -73 74 0
32 73 74 0
-75 4 0
-75 -43 0
-4 43 75 0
-76 74 0
-76 -75 0
-74 75 76 0
77 -72 0
77 -76 0
72 76 -77 0
-78 -62 0
-78 77 0
62 -77 78 0
79 47 0
79 -78 0
-47 78 -79 0
80 -27 0
80 79 0
27 -79 -80 0
81 19 0
81 -49 0
-19 49 -81 0
-82 32 0
-82 -8 0
-32 8 82 0
-83 11 0
-83 32 0
-11 -32 83 0
82 -83 -84 0
-82 83 -84 0
82 83 84 0
-82 -83 84 0
85 83 0
85 12 0
-83 -12 -85 0
-84 85 -86 0
84 -85 -86 0
-84 -85 86 0
84 85 86 0
87 2 0
87 -3 0
-2 3 -87 0
-88 -15 0
-88 -15 0
15 88 0
88 -75 -89 0
-88 75 -89 0
88 75 89 0
-88 -75 89 0
87 -89 -90 0
-87 89 -90 0
87 89 90 0
-87 -89 90 0
-86 90 -91 0
86 -90 -91 0
-86 -90 91 0
86 90 91 0
81 -91 -92 0
-81 91 -92 0
81 91 92 0
-81 -91 92 0
-94 -32 0
-94 -93 0
32 93 94 0
3 -93 -95 0
-3 93 -95 0
3 93 95 0
-3 -93 95 0
96 -2 0
96 -82 0
2 82 -96 0
-97 95 0
-97 96 0
-95 -96 97 0
98 -94 0
98 97 0
94 -97 -98 0
99 -54 0
99 -32 0
54 32 -99 0
-39 -5 -100 0
39 5 -100 0
-39 5 100 0
39 -5 100 0
-99 -100 -101 0
99 100 -101 0
-99 100 101 0
99 -100 101 0
102 98 0
102 -101 0
-98 101 -102 0
-103 83 0
-103 -11 0
-83 11 103 0
104 -74 0
104 8 0
74 -8 -104 0
105 -103 0
105 104 0
103 -104 -105 0
-55 82 -106 0
55 -82 -106 0
-55 -82 106 0
55 82 106 0
107 106 0
107 -35 0
-106 35 -107 0
-108 32 0
-108 -73 0
-32 73 108 0
107 -108 -109 0
-107 108 -109 0
107 108 109 0
-107 -108 109 0
-110 -8 0
-110 -23 0
8 23 110 0
111 109 0
111 110 0
-109 -110 -111 0
112 105 0
112 -111 0
-105 111 -112 0
-113 -13 0
-113 -12 0
13 12 113 0
112 -113 -114 0
-112 113 -114 0
112 113 114 0
-112 -113 114 0
-102 -114 -115 0
102 114 -115 0
-102 114 115 0
102 -114 115 0
-92 -115 -116 0
92 115 -116 0
-92 115 116 0
92 -115 116 0
80 -116 -117 0
-80 116 -117 0
80 116 117 0
-80 -116 117 0
-26 -117 -118 0
26 117 -118 0
-26 117 118 0
26 -117 118 0
97 92 -61 58 40 0
-20 -99 0
-10 -29 -53 -101 41 -89 0
-110 -12 49 71 0
60 64 -63 117 97 62 0
4 104 0
53 85 -62 86 -82 -54 0
107 -97 -42 66 0
-70 -77 -42 71 59 28 0
76 -106 60 36 4 -42 0
-67 -41 0
-3 21 -88 -85 1 0
-88 91 0
-57 -24 -77 26 0
6 9 118 59 0
-75 -73 87 -51 0
17 117 -56 -98 -113 97 0
-67 -42 -95 -50 -68 97 0
-6 73 -2 -105 -42 0
-13 -17 69 96 -16 -75 0
-23 -35 -78 -114 -94 -97 0
19 75 -33 -8 -100 39 0
24 58 -74 -28 0
22 -10 42 0
29 116 84 0
78 -13 -20 63 0
-64 65 52 -46 83 54 0
-46 -68 -30 12 79 0
-5 28 -47 0
-31 -117 0
-44 101 0
17 15 56 50 14 39 0
117 -19 72 -18 -23 106 0
-100 -52 2 -84 -21 -35 0
-39 16 -2 0
27 -52 61 0
11 25 36 43 0
11 -1 64 -25 58 0
112 55 12 -103 -111 0
16 11 -47 -28 79 0
65 -39 46 8 0
29 -27 104 -102 0
30 67 -68 0
76 -40 0
-116 -48 0
-49 -106 -67 -32 0
71 -57 -53 3 88 0
29 -33 -22 -26 -52 -92 0
57 -114 71 0
-45 100 -56 -81 0
-61 48 -110 44 0
60 42 0
79 86 -43 84 59 -56 0
37 58 0
-93 -70 67 0
-94 96 -103 0
29 42 0
87 38 104 111 -36 -17 0
43 -8 113 -27 0
67 52 8 -3 -20 2 0
28 3 104 30 99 0
-81 -42 -85 86 0
80 42 0
-78 27 -44 -3 45 38 0
-103 66 0
81 -102 96 93 83 0
25 43 -71 -19 0
76 -34 26 0
-91 17 0
118 0
